============================[ Problem Statistics ]=============================|                                                                             ||  Number of variables:          4242                                         ||  Number of clauses:           10162                                         ||  Parse time:                   0.55 s                                       ||                                                                             |============================[ Search Statistics ]==============================| Conflicts |          ORIGINAL         |          LEARNT          | Progress ||           |    Vars  Clauses Literals |    Limit  Clauses Lit/Cl |          |===============================================================================|       100 |    1591     6367   877298 |     2334      100     53 | 62.501 % ||       250 |    1591     6367   877298 |     2568      250     75 | 62.495 % |===============================================================================restarts              : 3conflicts             : 305            (369 /sec)decisions             : 569            (0.00 % random) (688 /sec)propagations          : 11862          (14343 /sec)conflict literals     : 24139          (94.73 % deleted)CPU time              : 0.827 sSATISFIABLE